************************************************************************
file with basedata            : J1207_.BAS
initial value random generator: 204706692
************************************************************************
projects                      :  1
jobs (incl. supersource/sink ):  122
horizon                       :  613
RESOURCES
  - renewable                 :  4   R
  - nonrenewable              :  0   N
  - doubly constrained        :  0   D
************************************************************************
PROJECT INFORMATION:
pronr.  #jobs rel.date duedate tardcost  MPM-Time
    1    120      0       85      115       85
************************************************************************
PRECEDENCE RELATIONS:
jobnr.    #modes  #successors   successors
   1        1          3           2   3   4
   2        1          3           5  18  38
   3        1          2           6  27
   4        1          3           8  14  25
   5        1          3          10  11  15
   6        1          3           7  43  47
   7        1          3          10  29  76
   8        1          1           9
   9        1          3          31  41  82
  10        1          3          46  48  77
  11        1          2          12  60
  12        1          3          13  39  54
  13        1          1          19
  14        1          2          21  28
  15        1          2          16  17
  16        1          1          20
  17        1          2          44  69
  18        1          3          22  23  24
  19        1          2          33  89
  20        1          2          42  45
  21        1          1          92
  22        1          1          26
  23        1          2          37  53
  24        1          2          30  45
  25        1          2          52  96
  26        1          1          94
  27        1          1          28
  28        1          2          30 108
  29        1          3          32  34  50
  30        1          1          55
  31        1          2          74 107
  32        1          3          35  49  67
  33        1          1          68
  34        1          1          36
  35        1          1         117
  36        1          2          51  95
  37        1          1          65
  38        1          2          40  63
  39        1          1          88
  40        1          2          75 119
  41        1          1          85
  42        1          3          56  79  87
  43        1          2          64 104
  44        1          2          61  84
  45        1          1         106
  46        1          2          57 114
  47        1          2          53  57
  48        1          1          83
  49        1          2          74  85
  50        1          3          55  78 103
  51        1          1          54
  52        1          1          66
  53        1          1          72
  54        1          1          58
  55        1          1          91
  56        1          1          60
  57        1          2          59  93
  58        1          3          62  68  70
  59        1          1          84
  60        1          2          98 120
  61        1          1          67
  62        1          1          99
  63        1          1          74
  64        1          1          84
  65        1          1          88
  66        1          1          71
  67        1          2          73 116
  68        1          2          80 118
  69        1          1          80
  70        1          1          81
  71        1          1          86
  72        1          1         110
  73        1          2          81  90
  74        1          1          89
  75        1          1          96
  76        1          2          80  99
  77        1          1         103
  78        1          1          98
  79        1          1          95
  80        1          1          91
  81        1          1          86
  82        1          1         100
  83        1          1         117
  84        1          1         119
  85        1          1          97
  86        1          1         118
  87        1          1          98
  88        1          1         101
  89        1          1          92
  90        1          1         100
  91        1          1          93
  92        1          2         102 121
  93        1          1         104
  94        1          1         101
  95        1          1         100
  96        1          2          97 110
  97        1          2         106 115
  98        1          1         105
  99        1          1         113
 100        1          1         111
 101        1          2         105 107
 102        1          1         109
 103        1          1         110
 104        1          2         111 112
 105        1          1         121
 106        1          1         112
 107        1          1         115
 108        1          1         116
 109        1          1         118
 110        1          2         111 112
 111        1          1         115
 112        1          1         113
 113        1          1         116
 114        1          1         117
 115        1          1         121
 116        1          1         120
 117        1          1         119
 118        1          1         120
 119        1          1         122
 120        1          1         122
 121        1          1         122
 122        1          0        
************************************************************************
REQUESTS/DURATIONS:
jobnr. mode duration  R 1  R 2  R 3  R 4
------------------------------------------------------------------------
  1      1     0       0    0    0    0
  2      1     6       4    0    4    0
  3      1     8       0    8   10    0
  4      1     3       8    7    7    5
  5      1     4       3    7    0    0
  6      1     4       0    0    8    4
  7      1     3       0    0    0    6
  8      1     4       0    0    1    0
  9      1     2       0    2    4    4
 10      1    10       0    0    0    1
 11      1    10       0   10    4    0
 12      1     7       6    7    0    0
 13      1     1       0    0    3    0
 14      1     4       7    0    0    0
 15      1     6       0    9    9    0
 16      1     7       4    7    0    0
 17      1     4       4    0    8    0
 18      1     8       2    9    0    0
 19      1     9       7    0    6    5
 20      1     9       7    0    5   10
 21      1     7       0    0    7    4
 22      1     7       6    0    0    0
 23      1     3       0    5   10    0
 24      1     3       0    0    5    1
 25      1     9       0    7    0    3
 26      1     2       0    4    0    1
 27      1    10       0    0    9    0
 28      1     2       0    0    0    4
 29      1     9       3    0    4    0
 30      1     1       0   10    6   10
 31      1     2       7    0    0    0
 32      1     8       0    0    0    2
 33      1     3       9    3    3    0
 34      1     4       0    5    0    5
 35      1     7       3    1   10    1
 36      1     5       2    0    5    0
 37      1     7       9    4    0    0
 38      1    10       0    3    0    2
 39      1     4       0    6    0    2
 40      1     3       0    0    0    2
 41      1     6      10    0    0    6
 42      1     6       0    8   10    5
 43      1     5       4    8    1    0
 44      1     8       5    8    1    0
 45      1     7       1    8    0    2
 46      1     7       6    0    3    0
 47      1     3       0    5    5    0
 48      1     7       7    0    0    9
 49      1     7       0    0    0   10
 50      1     4       0    0    7    0
 51      1     3       0    2    0    0
 52      1     8       2    0    0    0
 53      1     2       0    8    7    6
 54      1     3       6    0    0    6
 55      1     3       0    6    9    0
 56      1     7       6    0    0    9
 57      1     9       0   10    0    4
 58      1     4       0    9    0    1
 59      1     4       0    5    4    0
 60      1     5       9    0    8    0
 61      1     8       7    0    8    5
 62      1     3       5    0    1    4
 63      1     2       0    0    2   10
 64      1     6       0    0   10    0
 65      1     6       1    0    0    0
 66      1     2       0    1    0    2
 67      1     1       0    1   10    9
 68      1     1       0    4    8    5
 69      1     4       6    1    0    0
 70      1     3       0    8   10    0
 71      1     7       3    0    0    7
 72      1     3       6    0    0    1
 73      1     4       1    0    5    6
 74      1    10      10    0    0   10
 75      1     5       2    8    0    0
 76      1     4       7    4    4    2
 77      1     1       1    0    0    0
 78      1     5       6    0    0    8
 79      1     4       0    8    8    0
 80      1     7       9    0    0    0
 81      1     3       5    0    6    0
 82      1     7       6    0    7    2
 83      1     2       7    0    0    2
 84      1     4       1    8    0    8
 85      1     1       2    3   10    0
 86      1     1       0    0    0    6
 87      1     9       1    7    0    4
 88      1    10       1    5    0    0
 89      1     5       8    1    7    0
 90      1     6       3    0    0    0
 91      1     7       0    0    0    2
 92      1     5       4    0    7    0
 93      1     3       0    0    9    0
 94      1     6       4    2    0    6
 95      1     7       8    0    3    1
 96      1     7       0    7    0    1
 97      1     2      10    9    0    0
 98      1    10       0    7    0    0
 99      1     2       0    0    3    0
100      1     6       4    0    1    0
101      1     9       0    5    0    1
102      1     8       0    4    2   10
103      1     2       0    0    0    8
104      1     7       9    1    0    0
105      1     7       0    6    1    0
106      1     1       0    7    0    0
107      1     8       6   10    0    0
108      1     9       8    9    5    0
109      1     2      10    0    0    0
110      1     1       0    6    0    0
111      1     8       9    0    9    0
112      1     1       0    0    3    1
113      1     6       5    9    6    0
114      1     8       0    0    0   10
115      1     8       0    0    0    1
116      1     5      10    0    0    3
117      1     3       0    6    0    3
118      1     1       5    8    0    0
119      1     4       0    5    6    1
120      1     2       1    9    0    0
121      1     1      10    1    0    0
122      1     0       0    0    0    0
************************************************************************
RESOURCEAVAILABILITIES:
  R 1  R 2  R 3  R 4
   20   19   19   21
************************************************************************
